
Value of objective function: 3.00000000

Actual values of the variables:
x0                              1
x1                              0
x2                              0
x3                              1
x4                              0
x5                              1
x6                              0
e2_0_0                          5
e0_0_0                         12
y0                              0
y1                             12
e4_0_0                         10
e4_1_0                         17
e1_0_0                          5
y2                              5
y3                              0
e1_0_1                          5
y4                              5
y5                              0
y6                              5
y7                              0
y8                             10
y9                              0
e5_1_0                         13
y10                             0
y11                            17
y12                             0
y13                            13
e6_0_0                         19
y14                             0
y15                            19
e5_0_B_0_0                     28
y16                            28
y17                             0
